743.83 0
0 51 16 49 24 56 23 63 33 6 75 0
0 3 44 32 50 18 55 25 9 39 12 0
0 30 74 28 61 21 47 48 4 0
0 7 53 11 66 59 14 35 0
0 27 57 15 37 20 70 60 71 69 36 5 29 45 0
0 34 52 13 54 19 8 46 67 0
0 73 1 43 41 42 64 22 62 2 68 0
0 26 58 10 38 65 31 72 40 17 0